p cnf 967 2484
51 -700 -1 0
-51 700 0
-51 1 0
52 -51 -701 0
-52 51 0
-52 701 0
53 -702 -703 0
-53 702 0
-53 703 0
54 -53 -704 0
-54 53 0
-54 704 0
55 -705 -706 0
-55 705 0
-55 706 0
56 -8 -7 0
-56 8 0
-56 7 0
57 -56 -9 0
-57 56 0
-57 9 0
58 -707 -55 0
-58 707 0
-58 55 0
59 -708 -1 0
-59 708 0
-59 1 0
60 -59 -709 0
-60 59 0
-60 709 0
61 -710 -58 0
-61 710 0
-61 58 0
62 -711 -703 0
-62 711 0
-62 703 0
63 -62 -13 0
-63 62 0
-63 13 0
64 -712 -61 0
-64 712 0
-64 61 0
65 -713 -14 0
-65 713 0
-65 14 0
66 -65 -16 0
-66 65 0
-66 16 0
67 -714 -64 0
-67 714 0
-67 64 0
68 -18 -715 0
-68 18 0
-68 715 0
69 -68 -704 0
-69 68 0
-69 704 0
70 -716 -67 0
-70 716 0
-70 67 0
71 -19 -717 0
-71 19 0
-71 717 0
72 -71 -709 0
-72 71 0
-72 709 0
73 -718 -70 0
-73 718 0
-73 70 0
74 -21 -20 0
-74 21 0
-74 20 0
75 -74 -708 0
-75 74 0
-75 708 0
76 -719 -73 0
-76 719 0
-76 73 0
77 -22 -1 0
-77 22 0
-77 1 0
78 -77 -23 0
-78 77 0
-78 23 0
79 -720 -76 0
-79 720 0
-79 76 0
80 -711 -721 0
-80 711 0
-80 721 0
81 -80 -717 0
-81 80 0
-81 717 0
82 -722 -79 0
-82 722 0
-82 79 0
83 -723 -715 0
-83 723 0
-83 715 0
84 -83 -702 0
-84 83 0
-84 702 0
85 -724 -82 0
-85 724 0
-85 82 0
86 -26 -25 0
-86 26 0
-86 25 0
87 -86 -27 0
-87 86 0
-87 27 0
88 -725 -85 0
-88 725 0
-88 85 0
89 -28 -7 0
-89 28 0
-89 7 0
90 -89 -9 0
-90 89 0
-90 9 0
91 -726 -88 0
-91 726 0
-91 88 0
92 -727 -2 0
-92 727 0
-92 2 0
93 -92 -728 0
-93 92 0
-93 728 0
94 -729 -91 0
-94 729 0
-94 91 0
95 -18 -15 0
-95 18 0
-95 15 0
96 -95 -730 0
-96 95 0
-96 730 0
97 -731 -94 0
-97 731 0
-97 94 0
98 -30 -721 0
-98 30 0
-98 721 0
99 -98 -31 0
-99 98 0
-99 31 0
100 -732 -97 0
-100 732 0
-100 97 0
101 -733 -713 0
-101 733 0
-101 713 0
102 -101 -708 0
-102 101 0
-102 708 0
103 -734 -100 0
-103 734 0
-103 100 0
104 -733 -7 0
-104 733 0
-104 7 0
105 -104 -30 0
-105 104 0
-105 30 0
106 -735 -103 0
-106 735 0
-106 103 0
107 -736 -711 0
-107 736 0
-107 711 0
108 -107 -34 0
-108 107 0
-108 34 0
109 -737 -106 0
-109 737 0
-109 106 0
110 -738 -739 0
-110 738 0
-110 739 0
111 -110 -704 0
-111 110 0
-111 704 0
112 -740 -109 0
-112 740 0
-112 109 0
113 -741 -18 0
-113 741 0
-113 18 0
114 -113 -742 0
-114 113 0
-114 742 0
115 -743 -112 0
-115 743 0
-115 112 0
116 -37 -36 0
-116 37 0
-116 36 0
117 -116 -744 0
-117 116 0
-117 744 0
118 -745 -115 0
-118 745 0
-118 115 0
119 -746 -16 0
-119 746 0
-119 16 0
120 -119 -747 0
-120 119 0
-120 747 0
121 -748 -118 0
-121 748 0
-121 118 0
122 -749 -1 0
-122 749 0
-122 1 0
123 -122 -744 0
-123 122 0
-123 744 0
124 -750 -121 0
-124 750 0
-124 121 0
125 -41 -751 0
-125 41 0
-125 751 0
126 -125 -752 0
-126 125 0
-126 752 0
127 -753 -124 0
-127 753 0
-127 124 0
128 -752 -32 0
-128 752 0
-128 32 0
129 -128 -36 0
-129 128 0
-129 36 0
130 -754 -127 0
-130 754 0
-130 127 0
131 -43 -32 0
-131 43 0
-131 32 0
132 -131 -6 0
-132 131 0
-132 6 0
133 -755 -130 0
-133 755 0
-133 130 0
134 -44 -756 0
-134 44 0
-134 756 0
135 -134 -42 0
-135 134 0
-135 42 0
136 -757 -133 0
-136 757 0
-136 133 0
137 -756 -33 0
-137 756 0
-137 33 0
138 -137 -709 0
-138 137 0
-138 709 0
139 -758 -136 0
-139 758 0
-139 136 0
140 -29 -17 0
-140 29 0
-140 17 0
141 -140 -759 0
-141 140 0
-141 759 0
142 -760 -139 0
-142 760 0
-142 139 0
143 -761 -44 0
-143 761 0
-143 44 0
144 -143 -709 0
-144 143 0
-144 709 0
145 -762 -142 0
-145 762 0
-145 142 0
146 -13 -1 0
-146 13 0
-146 1 0
147 -146 -3 0
-147 146 0
-147 3 0
148 -763 -145 0
-148 763 0
-148 145 0
149 -43 -713 0
-149 43 0
-149 713 0
150 -149 -756 0
-150 149 0
-150 756 0
151 -764 -148 0
-151 764 0
-151 148 0
152 -715 -765 0
-152 715 0
-152 765 0
153 -152 -27 0
-153 152 0
-153 27 0
154 -766 -151 0
-154 766 0
-154 151 0
155 -767 -20 0
-155 767 0
-155 20 0
156 -155 -29 0
-156 155 0
-156 29 0
157 -768 -154 0
-157 768 0
-157 154 0
158 -769 -41 0
-158 769 0
-158 41 0
159 -158 -752 0
-159 158 0
-159 752 0
160 -770 -157 0
-160 770 0
-160 157 0
161 -23 -19 0
-161 23 0
-161 19 0
162 -161 -11 0
-162 161 0
-162 11 0
163 -771 -160 0
-163 771 0
-163 160 0
164 -738 -711 0
-164 738 0
-164 711 0
165 -164 -742 0
-165 164 0
-165 742 0
166 -772 -163 0
-166 772 0
-166 163 0
167 -27 -6 0
-167 27 0
-167 6 0
168 -167 -744 0
-168 167 0
-168 744 0
169 -773 -166 0
-169 773 0
-169 166 0
170 -749 -23 0
-170 749 0
-170 23 0
171 -170 -709 0
-171 170 0
-171 709 0
172 -774 -169 0
-172 774 0
-172 169 0
173 -24 -708 0
-173 24 0
-173 708 0
174 -173 -759 0
-174 173 0
-174 759 0
175 -775 -172 0
-175 775 0
-175 172 0
176 -776 -27 0
-176 776 0
-176 27 0
177 -176 -34 0
-177 176 0
-177 34 0
178 -777 -175 0
-178 777 0
-178 175 0
179 -756 -715 0
-179 756 0
-179 715 0
180 -179 -778 0
-180 179 0
-180 778 0
181 -779 -178 0
-181 779 0
-181 178 0
182 -751 -765 0
-182 751 0
-182 765 0
183 -182 -19 0
-183 182 0
-183 19 0
184 -780 -181 0
-184 780 0
-184 181 0
185 -781 -700 0
-185 781 0
-185 700 0
186 -185 -27 0
-186 185 0
-186 27 0
187 -782 -184 0
-187 782 0
-187 184 0
188 -47 -42 0
-188 47 0
-188 42 0
189 -188 -33 0
-189 188 0
-189 33 0
190 -783 -187 0
-190 783 0
-190 187 0
191 -23 -21 0
-191 23 0
-191 21 0
192 -191 -33 0
-192 191 0
-192 33 0
193 -784 -190 0
-193 784 0
-193 190 0
194 -35 -21 0
-194 35 0
-194 21 0
195 -194 -785 0
-195 194 0
-195 785 0
196 -786 -193 0
-196 786 0
-196 193 0
197 -42 -730 0
-197 42 0
-197 730 0
198 -197 -3 0
-198 197 0
-198 3 0
199 -787 -196 0
-199 787 0
-199 196 0
200 -769 -44 0
-200 769 0
-200 44 0
201 -200 -35 0
-201 200 0
-201 35 0
202 -788 -199 0
-202 788 0
-202 199 0
203 -789 -717 0
-203 789 0
-203 717 0
204 -203 -36 0
-204 203 0
-204 36 0
205 -790 -202 0
-205 790 0
-205 202 0
206 -10 -2 0
-206 10 0
-206 2 0
207 -206 -789 0
-207 206 0
-207 789 0
208 -791 -205 0
-208 791 0
-208 205 0
209 -24 -4 0
-209 24 0
-209 4 0
210 -209 -47 0
-210 209 0
-210 47 0
211 -792 -208 0
-211 792 0
-211 208 0
212 -793 -26 0
-212 793 0
-212 26 0
213 -212 -736 0
-213 212 0
-213 736 0
214 -794 -211 0
-214 794 0
-214 211 0
215 -48 -776 0
-215 48 0
-215 776 0
216 -215 -9 0
-216 215 0
-216 9 0
217 -795 -214 0
-217 795 0
-217 214 0
218 -26 -20 0
-218 26 0
-218 20 0
219 -218 -15 0
-219 218 0
-219 15 0
220 -796 -217 0
-220 796 0
-220 217 0
221 -793 -21 0
-221 793 0
-221 21 0
222 -221 -702 0
-222 221 0
-222 702 0
223 -797 -220 0
-223 797 0
-223 220 0
224 -49 -4 0
-224 49 0
-224 4 0
225 -224 -38 0
-225 224 0
-225 38 0
226 -798 -223 0
-226 798 0
-226 223 0
227 -767 -15 0
-227 767 0
-227 15 0
228 -227 -34 0
-228 227 0
-228 34 0
229 -799 -226 0
-229 799 0
-229 226 0
230 -793 -16 0
-230 793 0
-230 16 0
231 -230 -747 0
-231 230 0
-231 747 0
232 -800 -229 0
-232 800 0
-232 229 0
233 -793 -739 0
-233 793 0
-233 739 0
234 -233 -702 0
-234 233 0
-234 702 0
235 -801 -232 0
-235 801 0
-235 232 0
236 -789 -37 0
-236 789 0
-236 37 0
237 -236 -802 0
-237 236 0
-237 802 0
238 -803 -235 0
-238 803 0
-238 235 0
239 -32 -1 0
-239 32 0
-239 1 0
240 -239 -778 0
-240 239 0
-240 778 0
241 -804 -238 0
-241 804 0
-241 238 0
242 -47 -747 0
-242 47 0
-242 747 0
243 -242 -36 0
-243 242 0
-243 36 0
244 -805 -241 0
-244 805 0
-244 241 0
245 -12 -708 0
-245 12 0
-245 708 0
246 -245 -744 0
-246 245 0
-246 744 0
247 -806 -244 0
-247 806 0
-247 244 0
248 -769 -37 0
-248 769 0
-248 37 0
249 -248 -16 0
-249 248 0
-249 16 0
250 -807 -247 0
-250 807 0
-250 247 0
251 -723 -8 0
-251 723 0
-251 8 0
252 -251 -808 0
-252 251 0
-252 808 0
253 -809 -250 0
-253 809 0
-253 250 0
254 -769 -16 0
-254 769 0
-254 16 0
255 -254 -3 0
-255 254 0
-255 3 0
256 -810 -253 0
-256 810 0
-256 253 0
257 -733 -767 0
-257 733 0
-257 767 0
258 -257 -33 0
-258 257 0
-258 33 0
259 -811 -256 0
-259 811 0
-259 256 0
260 -751 -733 0
-260 751 0
-260 733 0
261 -260 -24 0
-261 260 0
-261 24 0
262 -812 -259 0
-262 812 0
-262 259 0
263 -776 -8 0
-263 776 0
-263 8 0
264 -263 -738 0
-264 263 0
-264 738 0
265 -813 -262 0
-265 813 0
-265 262 0
266 -21 -747 0
-266 21 0
-266 747 0
267 -266 -3 0
-267 266 0
-267 3 0
268 -814 -265 0
-268 814 0
-268 265 0
269 -28 -815 0
-269 28 0
-269 815 0
270 -269 -752 0
-270 269 0
-270 752 0
271 -816 -268 0
-271 816 0
-271 268 0
272 -32 -817 0
-272 32 0
-272 817 0
273 -272 -778 0
-273 272 0
-273 778 0
274 -818 -271 0
-274 818 0
-274 271 0
275 -41 -738 0
-275 41 0
-275 738 0
276 -275 -48 0
-276 275 0
-276 48 0
277 -819 -274 0
-277 819 0
-277 274 0
278 -218 -752 0
-278 218 0
-278 752 0
279 -820 -277 0
-279 820 0
-279 277 0
280 -4 -1 0
-280 4 0
-280 1 0
281 -280 -21 0
-281 280 0
-281 21 0
282 -821 -279 0
-282 821 0
-282 279 0
283 -741 -1 0
-283 741 0
-283 1 0
284 -283 -802 0
-284 283 0
-284 802 0
285 -822 -282 0
-285 822 0
-285 282 0
286 -21 -713 0
-286 21 0
-286 713 0
287 -286 -19 0
-287 286 0
-287 19 0
288 -823 -285 0
-288 823 0
-288 285 0
289 -32 -24 0
-289 32 0
-289 24 0
290 -289 -34 0
-290 289 0
-290 34 0
291 -824 -288 0
-291 824 0
-291 288 0
292 -746 -13 0
-292 746 0
-292 13 0
293 -292 -10 0
-293 292 0
-293 10 0
294 -825 -291 0
-294 825 0
-294 291 0
295 -45 -723 0
-295 45 0
-295 723 0
296 -295 -702 0
-296 295 0
-296 702 0
297 -826 -294 0
-297 826 0
-297 294 0
298 -827 -9 0
-298 827 0
-298 9 0
299 -298 -744 0
-299 298 0
-299 744 0
300 -828 -297 0
-300 828 0
-300 297 0
301 -22 -728 0
-301 22 0
-301 728 0
302 -301 -23 0
-302 301 0
-302 23 0
303 -829 -300 0
-303 829 0
-303 300 0
304 -730 -717 0
-304 730 0
-304 717 0
305 -304 -5 0
-305 304 0
-305 5 0
306 -830 -303 0
-306 830 0
-306 303 0
307 -23 -704 0
-307 23 0
-307 704 0
308 -307 -19 0
-308 307 0
-308 19 0
309 -831 -306 0
-309 831 0
-309 306 0
310 -741 -759 0
-310 741 0
-310 759 0
311 -310 -11 0
-311 310 0
-311 11 0
312 -832 -309 0
-312 832 0
-312 309 0
313 -733 -700 0
-313 733 0
-313 700 0
314 -313 -708 0
-314 313 0
-314 708 0
315 -833 -312 0
-315 833 0
-315 312 0
316 -8 -721 0
-316 8 0
-316 721 0
317 -316 -802 0
-317 316 0
-317 802 0
318 -834 -315 0
-318 834 0
-318 315 0
319 -835 -36 0
-319 835 0
-319 36 0
320 -319 -744 0
-320 319 0
-320 744 0
321 -836 -318 0
-321 836 0
-321 318 0
322 -12 -7 0
-322 12 0
-322 7 0
323 -322 -5 0
-323 322 0
-323 5 0
324 -837 -321 0
-324 837 0
-324 321 0
325 -759 -728 0
-325 759 0
-325 728 0
326 -325 -785 0
-326 325 0
-326 785 0
327 -838 -324 0
-327 838 0
-327 324 0
328 -22 -713 0
-328 22 0
-328 713 0
329 -328 -702 0
-329 328 0
-329 702 0
330 -839 -327 0
-330 839 0
-330 327 0
331 -17 -5 0
-331 17 0
-331 5 0
332 -331 -11 0
-332 331 0
-332 11 0
333 -840 -330 0
-333 840 0
-333 330 0
334 -18 -765 0
-334 18 0
-334 765 0
335 -334 -47 0
-335 334 0
-335 47 0
336 -841 -333 0
-336 841 0
-336 333 0
337 -715 -10 0
-337 715 0
-337 10 0
338 -337 -9 0
-338 337 0
-338 9 0
339 -842 -336 0
-339 842 0
-339 336 0
340 -781 -741 0
-340 781 0
-340 741 0
341 -340 -14 0
-341 340 0
-341 14 0
342 -843 -339 0
-342 843 0
-342 339 0
343 -746 -12 0
-343 746 0
-343 12 0
344 -343 -22 0
-344 343 0
-344 22 0
345 -844 -342 0
-345 844 0
-345 342 0
346 -17 -7 0
-346 17 0
-346 7 0
347 -346 -845 0
-347 346 0
-347 845 0
348 -846 -345 0
-348 846 0
-348 345 0
349 -40 -717 0
-349 40 0
-349 717 0
350 -349 -41 0
-350 349 0
-350 41 0
351 -847 -348 0
-351 847 0
-351 348 0
352 -19 -15 0
-352 19 0
-352 15 0
353 -352 -742 0
-353 352 0
-353 742 0
354 -848 -351 0
-354 848 0
-354 351 0
355 -849 -35 0
-355 849 0
-355 35 0
356 -355 -33 0
-356 355 0
-356 33 0
357 -850 -354 0
-357 850 0
-357 354 0
358 -738 -765 0
-358 738 0
-358 765 0
359 -358 -19 0
-359 358 0
-359 19 0
360 -851 -357 0
-360 851 0
-360 357 0
361 -56 -6 0
-361 56 0
-361 6 0
362 -852 -360 0
-362 852 0
-362 360 0
363 -39 -817 0
-363 39 0
-363 817 0
364 -363 -24 0
-364 363 0
-364 24 0
365 -853 -362 0
-365 853 0
-365 362 0
366 -41 -13 0
-366 41 0
-366 13 0
367 -366 -776 0
-367 366 0
-367 776 0
368 -854 -365 0
-368 854 0
-368 365 0
369 -817 -704 0
-369 817 0
-369 704 0
370 -369 -34 0
-370 369 0
-370 34 0
371 -855 -368 0
-371 855 0
-371 368 0
372 -845 -1 0
-372 845 0
-372 1 0
373 -372 -723 0
-373 372 0
-373 723 0
374 -856 -371 0
-374 856 0
-374 371 0
375 -37 -23 0
-375 37 0
-375 23 0
376 -375 -42 0
-376 375 0
-376 42 0
377 -857 -374 0
-377 857 0
-377 374 0
378 -776 -32 0
-378 776 0
-378 32 0
379 -378 -747 0
-379 378 0
-379 747 0
380 -858 -377 0
-380 858 0
-380 377 0
381 -21 -10 0
-381 21 0
-381 10 0
382 -381 -3 0
-382 381 0
-382 3 0
383 -859 -380 0
-383 859 0
-383 380 0
384 -733 -817 0
-384 733 0
-384 817 0
385 -384 -3 0
-385 384 0
-385 3 0
386 -860 -383 0
-386 860 0
-386 383 0
387 -767 -721 0
-387 767 0
-387 721 0
388 -387 -845 0
-388 387 0
-388 845 0
389 -861 -386 0
-389 861 0
-389 386 0
390 -769 -40 0
-390 769 0
-390 40 0
391 -390 -709 0
-391 390 0
-391 709 0
392 -862 -389 0
-392 862 0
-392 389 0
393 -49 -817 0
-393 49 0
-393 817 0
394 -393 -11 0
-394 393 0
-394 11 0
395 -863 -392 0
-395 863 0
-395 392 0
396 -849 -721 0
-396 849 0
-396 721 0
397 -396 -33 0
-397 396 0
-397 33 0
398 -864 -395 0
-398 864 0
-398 395 0
399 -8 -702 0
-399 8 0
-399 702 0
400 -399 -34 0
-400 399 0
-400 34 0
401 -865 -398 0
-401 865 0
-401 398 0
402 -741 -25 0
-402 741 0
-402 25 0
403 -402 -701 0
-403 402 0
-403 701 0
404 -866 -401 0
-404 866 0
-404 401 0
405 -35 -30 0
-405 35 0
-405 30 0
406 -405 -48 0
-406 405 0
-406 48 0
407 -867 -404 0
-407 867 0
-407 404 0
408 -18 -703 0
-408 18 0
-408 703 0
409 -408 -23 0
-409 408 0
-409 23 0
410 -868 -407 0
-410 868 0
-410 407 0
411 -25 -9 0
-411 25 0
-411 9 0
412 -411 -778 0
-412 411 0
-412 778 0
413 -869 -410 0
-413 869 0
-413 410 0
414 -730 -4 0
-414 730 0
-414 4 0
415 -414 -717 0
-415 414 0
-415 717 0
416 -870 -413 0
-416 870 0
-416 413 0
417 -769 -702 0
-417 769 0
-417 702 0
418 -417 -23 0
-418 417 0
-418 23 0
419 -871 -416 0
-419 871 0
-419 416 0
420 -756 -14 0
-420 756 0
-420 14 0
421 -420 -835 0
-421 420 0
-421 835 0
422 -872 -419 0
-422 872 0
-422 419 0
423 -30 -26 0
-423 30 0
-423 26 0
424 -423 -845 0
-424 423 0
-424 845 0
425 -873 -422 0
-425 873 0
-425 422 0
426 -23 -815 0
-426 23 0
-426 815 0
427 -426 -6 0
-427 426 0
-427 6 0
428 -874 -425 0
-428 874 0
-428 425 0
429 -781 -21 0
-429 781 0
-429 21 0
430 -429 -713 0
-430 429 0
-430 713 0
431 -875 -428 0
-431 875 0
-431 428 0
432 -16 -7 0
-432 16 0
-432 7 0
433 -432 -747 0
-433 432 0
-433 747 0
434 -876 -431 0
-434 876 0
-434 431 0
435 -22 -704 0
-435 22 0
-435 704 0
436 -435 -34 0
-436 435 0
-436 34 0
437 -877 -434 0
-437 877 0
-437 434 0
438 -21 -2 0
-438 21 0
-438 2 0
439 -438 -17 0
-439 438 0
-439 17 0
440 -878 -437 0
-440 878 0
-440 437 0
441 -879 -6 0
-441 879 0
-441 6 0
442 -441 -778 0
-442 441 0
-442 778 0
443 -880 -440 0
-443 880 0
-443 440 0
444 -134 -759 0
-444 134 0
-444 759 0
445 -881 -443 0
-445 881 0
-445 443 0
446 -738 -13 0
-446 738 0
-446 13 0
447 -446 -36 0
-447 446 0
-447 36 0
448 -882 -445 0
-448 882 0
-448 445 0
449 -849 -713 0
-449 849 0
-449 713 0
450 -449 -27 0
-450 449 0
-450 27 0
451 -883 -448 0
-451 883 0
-451 448 0
452 -48 -32 0
-452 48 0
-452 32 0
453 -452 -27 0
-453 452 0
-453 27 0
454 -884 -451 0
-454 884 0
-454 451 0
455 -827 -14 0
-455 827 0
-455 14 0
456 -455 -789 0
-456 455 0
-456 789 0
457 -885 -454 0
-457 885 0
-457 454 0
458 -827 -721 0
-458 827 0
-458 721 0
459 -458 -886 0
-459 458 0
-459 886 0
460 -887 -457 0
-460 887 0
-460 457 0
461 -36 -32 0
-461 36 0
-461 32 0
462 -461 -34 0
-462 461 0
-462 34 0
463 -888 -460 0
-463 888 0
-463 460 0
464 -45 -747 0
-464 45 0
-464 747 0
465 -464 -744 0
-465 464 0
-465 744 0
466 -889 -463 0
-466 889 0
-466 463 0
467 -39 -33 0
-467 39 0
-467 33 0
468 -467 -38 0
-468 467 0
-468 38 0
469 -890 -466 0
-469 890 0
-469 466 0
470 -879 -746 0
-470 879 0
-470 746 0
471 -470 -50 0
-471 470 0
-471 50 0
472 -891 -469 0
-472 891 0
-472 469 0
473 -41 -704 0
-473 41 0
-473 704 0
474 -473 -747 0
-474 473 0
-474 747 0
475 -892 -472 0
-475 892 0
-475 472 0
476 -751 -37 0
-476 751 0
-476 37 0
477 -476 -3 0
-477 476 0
-477 3 0
478 -893 -475 0
-478 893 0
-478 475 0
479 -49 -41 0
-479 49 0
-479 41 0
480 -479 -747 0
-480 479 0
-480 747 0
481 -894 -478 0
-481 894 0
-481 478 0
482 -808 -845 0
-482 808 0
-482 845 0
483 -482 -736 0
-483 482 0
-483 736 0
484 -895 -481 0
-484 895 0
-484 481 0
485 -28 -22 0
-485 28 0
-485 22 0
486 -485 -759 0
-486 485 0
-486 759 0
487 -896 -484 0
-487 896 0
-487 484 0
488 -47 -31 0
-488 47 0
-488 31 0
489 -488 -752 0
-489 488 0
-489 752 0
490 -897 -487 0
-490 897 0
-490 487 0
491 -835 -8 0
-491 835 0
-491 8 0
492 -491 -23 0
-492 491 0
-492 23 0
493 -898 -490 0
-493 898 0
-493 490 0
494 -24 -15 0
-494 24 0
-494 15 0
495 -494 -759 0
-495 494 0
-495 759 0
496 -899 -493 0
-496 899 0
-496 493 0
497 -789 -19 0
-497 789 0
-497 19 0
498 -497 -778 0
-498 497 0
-498 778 0
499 -900 -496 0
-499 900 0
-499 496 0
500 -6 -5 0
-500 6 0
-500 5 0
501 -500 -42 0
-501 500 0
-501 42 0
502 -901 -499 0
-502 901 0
-502 499 0
503 -776 -37 0
-503 776 0
-503 37 0
504 -503 -704 0
-504 503 0
-504 704 0
505 -902 -502 0
-505 902 0
-505 502 0
506 -48 -728 0
-506 48 0
-506 728 0
507 -506 -808 0
-507 506 0
-507 808 0
508 -903 -505 0
-508 903 0
-508 505 0
509 -7 -5 0
-509 7 0
-509 5 0
510 -509 -704 0
-510 509 0
-510 704 0
511 -904 -508 0
-511 904 0
-511 508 0
512 -849 -4 0
-512 849 0
-512 4 0
513 -512 -14 0
-513 512 0
-513 14 0
514 -905 -511 0
-514 905 0
-514 511 0
515 -730 -708 0
-515 730 0
-515 708 0
516 -515 -42 0
-516 515 0
-516 42 0
517 -906 -514 0
-517 906 0
-517 514 0
518 -761 -8 0
-518 761 0
-518 8 0
519 -518 -23 0
-519 518 0
-519 23 0
520 -907 -517 0
-520 907 0
-520 517 0
521 -13 -704 0
-521 13 0
-521 704 0
522 -521 -3 0
-522 521 0
-522 3 0
523 -908 -520 0
-523 908 0
-523 520 0
524 -756 -28 0
-524 756 0
-524 28 0
525 -524 -776 0
-525 524 0
-525 776 0
526 -909 -523 0
-526 909 0
-526 523 0
527 -886 -703 0
-527 886 0
-527 703 0
528 -527 -8 0
-528 527 0
-528 8 0
529 -910 -526 0
-529 910 0
-529 526 0
530 -23 -717 0
-530 23 0
-530 717 0
531 -530 -704 0
-531 530 0
-531 704 0
532 -911 -529 0
-532 911 0
-532 529 0
533 -741 -2 0
-533 741 0
-533 2 0
534 -533 -5 0
-534 533 0
-534 5 0
535 -912 -532 0
-535 912 0
-535 532 0
536 -781 -29 0
-536 781 0
-536 29 0
537 -536 -879 0
-537 536 0
-537 879 0
538 -913 -535 0
-538 913 0
-538 535 0
539 -759 -708 0
-539 759 0
-539 708 0
540 -539 -742 0
-540 539 0
-540 742 0
541 -914 -538 0
-541 914 0
-541 538 0
542 -835 -15 0
-542 835 0
-542 15 0
543 -542 -736 0
-543 542 0
-543 736 0
544 -915 -541 0
-544 915 0
-544 541 0
545 -886 -815 0
-545 886 0
-545 815 0
546 -545 -742 0
-546 545 0
-546 742 0
547 -916 -544 0
-547 916 0
-547 544 0
548 -749 -13 0
-548 749 0
-548 13 0
549 -548 -34 0
-549 548 0
-549 34 0
550 -917 -547 0
-550 917 0
-550 547 0
551 -733 -18 0
-551 733 0
-551 18 0
552 -551 -769 0
-552 551 0
-552 769 0
553 -918 -550 0
-553 918 0
-553 550 0
554 -44 -32 0
-554 44 0
-554 32 0
555 -554 -808 0
-555 554 0
-555 808 0
556 -919 -553 0
-556 919 0
-556 553 0
557 -24 -17 0
-557 24 0
-557 17 0
558 -557 -789 0
-558 557 0
-558 789 0
559 -920 -556 0
-559 920 0
-559 556 0
560 -751 -31 0
-560 751 0
-560 31 0
561 -560 -701 0
-561 560 0
-561 701 0
562 -921 -559 0
-562 921 0
-562 559 0
563 -24 -721 0
-563 24 0
-563 721 0
564 -563 -27 0
-564 563 0
-564 27 0
565 -922 -562 0
-565 922 0
-565 562 0
566 -808 -739 0
-566 808 0
-566 739 0
567 -566 -747 0
-567 566 0
-567 747 0
568 -923 -565 0
-568 923 0
-568 565 0
569 -756 -739 0
-569 756 0
-569 739 0
570 -569 -802 0
-570 569 0
-570 802 0
571 -924 -568 0
-571 924 0
-571 568 0
572 -179 -11 0
-572 179 0
-572 11 0
573 -925 -571 0
-573 925 0
-573 571 0
574 -751 -849 0
-574 751 0
-574 849 0
575 -574 -39 0
-575 574 0
-575 39 0
576 -926 -573 0
-576 926 0
-576 573 0
577 -15 -721 0
-577 15 0
-577 721 0
578 -577 -789 0
-578 577 0
-578 789 0
579 -927 -576 0
-579 927 0
-579 576 0
580 -26 -13 0
-580 26 0
-580 13 0
581 -580 -50 0
-581 580 0
-581 50 0
582 -928 -579 0
-582 928 0
-582 579 0
583 -759 -16 0
-583 759 0
-583 16 0
584 -583 -27 0
-584 583 0
-584 27 0
585 -929 -582 0
-585 929 0
-585 582 0
586 -49 -808 0
-586 49 0
-586 808 0
587 -586 -6 0
-587 586 0
-587 6 0
588 -930 -585 0
-588 930 0
-588 585 0
589 -42 -24 0
-589 42 0
-589 24 0
590 -589 -11 0
-590 589 0
-590 11 0
591 -931 -588 0
-591 931 0
-591 588 0
592 -879 -815 0
-592 879 0
-592 815 0
593 -592 -50 0
-593 592 0
-593 50 0
594 -932 -591 0
-594 932 0
-594 591 0
595 -835 -808 0
-595 835 0
-595 808 0
596 -595 -42 0
-596 595 0
-596 42 0
597 -933 -594 0
-597 933 0
-597 594 0
598 -28 -723 0
-598 28 0
-598 723 0
599 -598 -41 0
-599 598 0
-599 41 0
600 -934 -597 0
-600 934 0
-600 597 0
601 -46 -12 0
-601 46 0
-601 12 0
602 -601 -723 0
-602 601 0
-602 723 0
603 -935 -600 0
-603 935 0
-603 600 0
604 -733 -715 0
-604 733 0
-604 715 0
605 -604 -727 0
-605 604 0
-605 727 0
606 -936 -603 0
-606 936 0
-606 603 0
607 -744 -31 0
-607 744 0
-607 31 0
608 -607 -34 0
-608 607 0
-608 34 0
609 -937 -606 0
-609 937 0
-609 606 0
610 -18 -721 0
-610 18 0
-610 721 0
611 -610 -42 0
-611 610 0
-611 42 0
612 -938 -609 0
-612 938 0
-612 609 0
613 -44 -17 0
-613 44 0
-613 17 0
614 -613 -33 0
-614 613 0
-614 33 0
615 -939 -612 0
-615 939 0
-615 612 0
616 -36 -709 0
-616 36 0
-616 709 0
617 -616 -3 0
-617 616 0
-617 3 0
618 -940 -615 0
-618 940 0
-618 615 0
619 -767 -746 0
-619 767 0
-619 746 0
620 -619 -6 0
-620 619 0
-620 6 0
621 -941 -618 0
-621 941 0
-621 618 0
622 -749 -2 0
-622 749 0
-622 2 0
623 -622 -17 0
-623 622 0
-623 17 0
624 -942 -621 0
-624 942 0
-624 621 0
625 -26 -4 0
-625 26 0
-625 4 0
626 -625 -47 0
-626 625 0
-626 47 0
627 -943 -624 0
-627 943 0
-627 624 0
628 -727 -765 0
-628 727 0
-628 765 0
629 -628 -3 0
-629 628 0
-629 3 0
630 -944 -627 0
-630 944 0
-630 627 0
631 -40 -16 0
-631 40 0
-631 16 0
632 -631 -736 0
-632 631 0
-632 736 0
633 -945 -630 0
-633 945 0
-633 630 0
634 -761 -4 0
-634 761 0
-634 4 0
635 -634 -749 0
-635 634 0
-635 749 0
636 -946 -633 0
-636 946 0
-636 633 0
637 -45 -42 0
-637 45 0
-637 42 0
638 -637 -742 0
-638 637 0
-638 742 0
639 -947 -636 0
-639 947 0
-639 636 0
640 -38 -27 0
-640 38 0
-640 27 0
641 -640 -34 0
-641 640 0
-641 34 0
642 -948 -639 0
-642 948 0
-642 639 0
643 -22 -717 0
-643 22 0
-643 717 0
644 -643 -9 0
-644 643 0
-644 9 0
645 -949 -642 0
-645 949 0
-645 642 0
646 -14 -711 0
-646 14 0
-646 711 0
647 -646 -756 0
-647 646 0
-647 756 0
648 -950 -645 0
-648 950 0
-648 645 0
649 -751 -13 0
-649 751 0
-649 13 0
650 -649 -8 0
-650 649 0
-650 8 0
651 -951 -648 0
-651 951 0
-651 648 0
652 -776 -756 0
-652 776 0
-652 756 0
653 -652 -747 0
-653 652 0
-653 747 0
654 -952 -651 0
-654 952 0
-654 651 0
655 -32 -12 0
-655 32 0
-655 12 0
656 -655 -727 0
-656 655 0
-656 727 0
657 -953 -654 0
-657 953 0
-657 654 0
658 -48 -767 0
-658 48 0
-658 767 0
659 -658 -34 0
-659 658 0
-659 34 0
660 -954 -657 0
-660 954 0
-660 657 0
661 -703 -700 0
-661 703 0
-661 700 0
662 -661 -827 0
-662 661 0
-662 827 0
663 -955 -660 0
-663 955 0
-663 660 0
664 -802 -46 0
-664 802 0
-664 46 0
665 -664 -36 0
-665 664 0
-665 36 0
666 -956 -663 0
-666 956 0
-666 663 0
667 -26 -6 0
-667 26 0
-667 6 0
668 -667 -747 0
-668 667 0
-668 747 0
669 -957 -666 0
-669 957 0
-669 666 0
670 -711 -4 0
-670 711 0
-670 4 0
671 -670 -5 0
-671 670 0
-671 5 0
672 -958 -669 0
-672 958 0
-672 669 0
673 -835 -31 0
-673 835 0
-673 31 0
674 -673 -36 0
-674 673 0
-674 36 0
675 -959 -672 0
-675 959 0
-675 672 0
676 -703 -739 0
-676 703 0
-676 739 0
677 -676 -761 0
-677 676 0
-677 761 0
678 -960 -675 0
-678 960 0
-678 675 0
679 -28 -5 0
-679 28 0
-679 5 0
680 -679 -759 0
-680 679 0
-680 759 0
681 -961 -678 0
-681 961 0
-681 678 0
682 -22 -708 0
-682 22 0
-682 708 0
683 -682 -702 0
-683 682 0
-683 702 0
684 -962 -681 0
-684 962 0
-684 681 0
685 -781 -10 0
-685 781 0
-685 10 0
686 -685 -44 0
-686 685 0
-686 44 0
687 -963 -684 0
-687 963 0
-687 684 0
688 -769 -20 0
-688 769 0
-688 20 0
689 -688 -3 0
-689 688 0
-689 3 0
690 -964 -687 0
-690 964 0
-690 687 0
691 -46 -702 0
-691 46 0
-691 702 0
692 -691 -42 0
-692 691 0
-692 42 0
693 -965 -690 0
-693 965 0
-693 690 0
694 -733 -704 0
-694 733 0
-694 704 0
695 -694 -744 0
-695 694 0
-695 744 0
696 -966 -693 0
-696 966 0
-696 693 0
697 -742 -730 0
-697 742 0
-697 730 0
698 -697 -27 0
-698 697 0
-698 27 0
699 -967 -696 0
-699 967 0
-699 696 0
-700 -2 0
700 2 0
-701 -3 0
701 3 0
-702 -5 0
702 5 0
-703 -4 0
703 4 0
-704 -6 0
704 6 0
-705 -54 0
705 54 0
-706 -52 0
706 52 0
-707 -57 0
707 57 0
-708 -10 0
708 10 0
-709 -11 0
709 11 0
-710 -60 0
710 60 0
-711 -12 0
711 12 0
-712 -63 0
712 63 0
-713 -15 0
713 15 0
-714 -66 0
714 66 0
-715 -17 0
715 17 0
-716 -69 0
716 69 0
-717 -8 0
717 8 0
-718 -72 0
718 72 0
-719 -75 0
719 75 0
-720 -78 0
720 78 0
-721 -7 0
721 7 0
-722 -81 0
722 81 0
-723 -24 0
723 24 0
-724 -84 0
724 84 0
-725 -87 0
725 87 0
-726 -90 0
726 90 0
-727 -29 0
727 29 0
-728 -16 0
728 16 0
-729 -93 0
729 93 0
-730 -13 0
730 13 0
-731 -96 0
731 96 0
-732 -99 0
732 99 0
-733 -32 0
733 32 0
-734 -102 0
734 102 0
-735 -105 0
735 105 0
-736 -33 0
736 33 0
-737 -108 0
737 108 0
-738 -35 0
738 35 0
-739 -1 0
739 1 0
-740 -111 0
740 111 0
-741 -26 0
741 26 0
-742 -36 0
742 36 0
-743 -114 0
743 114 0
-744 -38 0
744 38 0
-745 -117 0
745 117 0
-746 -25 0
746 25 0
-747 -9 0
747 9 0
-748 -120 0
748 120 0
-749 -39 0
749 39 0
-750 -123 0
750 123 0
-751 -40 0
751 40 0
-752 -42 0
752 42 0
-753 -126 0
753 126 0
-754 -129 0
754 129 0
-755 -132 0
755 132 0
-756 -41 0
756 41 0
-757 -135 0
757 135 0
-758 -138 0
758 138 0
-759 -19 0
759 19 0
-760 -141 0
760 141 0
-761 -45 0
761 45 0
-762 -144 0
762 144 0
-763 -147 0
763 147 0
-764 -150 0
764 150 0
-765 -14 0
765 14 0
-766 -153 0
766 153 0
-767 -28 0
767 28 0
-768 -156 0
768 156 0
-769 -46 0
769 46 0
-770 -159 0
770 159 0
-771 -162 0
771 162 0
-772 -165 0
772 165 0
-773 -168 0
773 168 0
-774 -171 0
774 171 0
-775 -174 0
775 174 0
-776 -44 0
776 44 0
-777 -177 0
777 177 0
-778 -34 0
778 34 0
-779 -180 0
779 180 0
-780 -183 0
780 183 0
-781 -30 0
781 30 0
-782 -186 0
782 186 0
-783 -189 0
783 189 0
-784 -192 0
784 192 0
-785 -27 0
785 27 0
-786 -195 0
786 195 0
-787 -198 0
787 198 0
-788 -201 0
788 201 0
-789 -48 0
789 48 0
-790 -204 0
790 204 0
-791 -207 0
791 207 0
-792 -210 0
792 210 0
-793 -31 0
793 31 0
-794 -213 0
794 213 0
-795 -216 0
795 216 0
-796 -219 0
796 219 0
-797 -222 0
797 222 0
-798 -225 0
798 225 0
-799 -228 0
799 228 0
-800 -231 0
800 231 0
-801 -234 0
801 234 0
-802 -50 0
802 50 0
-803 -237 0
803 237 0
-804 -240 0
804 240 0
-805 -243 0
805 243 0
-806 -246 0
806 246 0
-807 -249 0
807 249 0
-808 -23 0
808 23 0
-809 -252 0
809 252 0
-810 -255 0
810 255 0
-811 -258 0
811 258 0
-812 -261 0
812 261 0
-813 -264 0
813 264 0
-814 -267 0
814 267 0
-815 -21 0
815 21 0
-816 -270 0
816 270 0
-817 -22 0
817 22 0
-818 -273 0
818 273 0
-819 -276 0
819 276 0
-820 -278 0
820 278 0
-821 -281 0
821 281 0
-822 -284 0
822 284 0
-823 -287 0
823 287 0
-824 -290 0
824 290 0
-825 -293 0
825 293 0
-826 -296 0
826 296 0
-827 -20 0
827 20 0
-828 -299 0
828 299 0
-829 -302 0
829 302 0
-830 -305 0
830 305 0
-831 -308 0
831 308 0
-832 -311 0
832 311 0
-833 -314 0
833 314 0
-834 -317 0
834 317 0
-835 -47 0
835 47 0
-836 -320 0
836 320 0
-837 -323 0
837 323 0
-838 -326 0
838 326 0
-839 -329 0
839 329 0
-840 -332 0
840 332 0
-841 -335 0
841 335 0
-842 -338 0
842 338 0
-843 -341 0
843 341 0
-844 -344 0
844 344 0
-845 -18 0
845 18 0
-846 -347 0
846 347 0
-847 -350 0
847 350 0
-848 -353 0
848 353 0
-849 -37 0
849 37 0
-850 -356 0
850 356 0
-851 -359 0
851 359 0
-852 -361 0
852 361 0
-853 -364 0
853 364 0
-854 -367 0
854 367 0
-855 -370 0
855 370 0
-856 -373 0
856 373 0
-857 -376 0
857 376 0
-858 -379 0
858 379 0
-859 -382 0
859 382 0
-860 -385 0
860 385 0
-861 -388 0
861 388 0
-862 -391 0
862 391 0
-863 -394 0
863 394 0
-864 -397 0
864 397 0
-865 -400 0
865 400 0
-866 -403 0
866 403 0
-867 -406 0
867 406 0
-868 -409 0
868 409 0
-869 -412 0
869 412 0
-870 -415 0
870 415 0
-871 -418 0
871 418 0
-872 -421 0
872 421 0
-873 -424 0
873 424 0
-874 -427 0
874 427 0
-875 -430 0
875 430 0
-876 -433 0
876 433 0
-877 -436 0
877 436 0
-878 -439 0
878 439 0
-879 -49 0
879 49 0
-880 -442 0
880 442 0
-881 -444 0
881 444 0
-882 -447 0
882 447 0
-883 -450 0
883 450 0
-884 -453 0
884 453 0
-885 -456 0
885 456 0
-886 -43 0
886 43 0
-887 -459 0
887 459 0
-888 -462 0
888 462 0
-889 -465 0
889 465 0
-890 -468 0
890 468 0
-891 -471 0
891 471 0
-892 -474 0
892 474 0
-893 -477 0
893 477 0
-894 -480 0
894 480 0
-895 -483 0
895 483 0
-896 -486 0
896 486 0
-897 -489 0
897 489 0
-898 -492 0
898 492 0
-899 -495 0
899 495 0
-900 -498 0
900 498 0
-901 -501 0
901 501 0
-902 -504 0
902 504 0
-903 -507 0
903 507 0
-904 -510 0
904 510 0
-905 -513 0
905 513 0
-906 -516 0
906 516 0
-907 -519 0
907 519 0
-908 -522 0
908 522 0
-909 -525 0
909 525 0
-910 -528 0
910 528 0
-911 -531 0
911 531 0
-912 -534 0
912 534 0
-913 -537 0
913 537 0
-914 -540 0
914 540 0
-915 -543 0
915 543 0
-916 -546 0
916 546 0
-917 -549 0
917 549 0
-918 -552 0
918 552 0
-919 -555 0
919 555 0
-920 -558 0
920 558 0
-921 -561 0
921 561 0
-922 -564 0
922 564 0
-923 -567 0
923 567 0
-924 -570 0
924 570 0
-925 -572 0
925 572 0
-926 -575 0
926 575 0
-927 -578 0
927 578 0
-928 -581 0
928 581 0
-929 -584 0
929 584 0
-930 -587 0
930 587 0
-931 -590 0
931 590 0
-932 -593 0
932 593 0
-933 -596 0
933 596 0
-934 -599 0
934 599 0
-935 -602 0
935 602 0
-936 -605 0
936 605 0
-937 -608 0
937 608 0
-938 -611 0
938 611 0
-939 -614 0
939 614 0
-940 -617 0
940 617 0
-941 -620 0
941 620 0
-942 -623 0
942 623 0
-943 -626 0
943 626 0
-944 -629 0
944 629 0
-945 -632 0
945 632 0
-946 -635 0
946 635 0
-947 -638 0
947 638 0
-948 -641 0
948 641 0
-949 -644 0
949 644 0
-950 -647 0
950 647 0
-951 -650 0
951 650 0
-952 -653 0
952 653 0
-953 -656 0
953 656 0
-954 -659 0
954 659 0
-955 -662 0
955 662 0
-956 -665 0
956 665 0
-957 -668 0
957 668 0
-958 -671 0
958 671 0
-959 -674 0
959 674 0
-960 -677 0
960 677 0
-961 -680 0
961 680 0
-962 -683 0
962 683 0
-963 -686 0
963 686 0
-964 -689 0
964 689 0
-965 -692 0
965 692 0
-966 -695 0
966 695 0
-967 -698 0
967 698 0
699 0
